nodes = 16;
edges = 36;
starts = [1, 1, 2, 3, 3, 4, 5, 7, 7, 8, 9, 9, 10, 11, 12, 13, 14, 15, 2, 6, 3, 4, 8, 5, 10, 8, 12, 9, 10, 14, 11, 16, 13, 14, 15, 16];
ends = [2, 6, 3, 4, 8, 5, 10, 8, 12, 9, 10, 14, 11, 16, 13, 14, 15, 16, 1, 1, 2, 3, 3, 4, 5, 7, 7, 8, 9, 9, 10, 11, 12, 13, 14, 15];
weights = [14, 16, 11, 8, 18, 4, 16, 16, 7, 19, 12, 19, 15, 16, 16, 3, 17, 2, 14, 16, 11, 8, 18, 4, 16, 16, 7, 19, 12, 19, 15, 16, 16, 3, 17, 2];
start = 1;
end= 16;
tasks = 6;
task = array2d(1..tasks, 1..nodes, [1, 0, 0, 0, 0, 0, 0, 0, 0, 0, 0, 0, 0, 0, 0, 0, 0, 1, 0, 0, 0, 0, 0, 0, 0, 0, 0, 0, 0, 0, 0, 0, 0, 0, 1, 0, 0, 0, 0, 0, 0, 0, 0, 0, 0, 0, 0, 0, 0, 0, 0, 0, 1, 0, 0, 0, 0, 0, 0, 0, 0, 0, 0, 0, 0, 0, 0, 0, 0, 0, 0, 0, 0, 1, 0, 0, 0, 0, 0, 0, 0, 0, 0, 0, 0, 0, 0, 0, 0, 0, 1, 0, 0, 0, 0, 0]);
